lbl,CUST NO.,READY TIME,XCOORD.,YCOORD.,DEMAND,DUE DATE,SERVICE TIME
17,177,86,16,138,10,171,90
17,3,105,10,137,30,261,90
17,88,206,8,138,30,345,90
17,8,293,6,135,40,445,90
17,186,407,3,135,20,517,90
17,127,467,2,132,10,642,90
17,98,610,10,134,10,697,90
17,157,666,14,131,10,831,90
